NAME: tsp30-29
TYPE: TSP
DIMENSION: 30
EDGE_WEIGHT_TYPE: EUC_2D
NODE_COORD_SECTION
0 73 43
1 62 75
2 72 22
3 5 19
4 62 51
5 32 16
6 83 93
7 69 18
8 90 44
9 67 77
10 66 20
11 65 20
12 64 96
13 57 70
14 91 75
15 96 52
16 6 6
17 89 32
18 9 55
19 22 1
20 75 90
21 8 34
22 29 40
23 13 95
24 19 45
25 52 5
26 11 33
27 58 10
28 64 88
29 6 73
EOF